# 9458
param n := 30;
param s := 1;
set E :=  (0,12) (0,19) (0,29) (1,3) (1,19) (1,20) (1,21) (2,6) (2,7) (2,12) (2,17) (2,24) (4,17) (4,21) (5,6) (6,10) (8,11) (8,15) (9,17) (9,29) (12,17) (13,15) (13,24) (13,26) (13,28) (14,24) (16,20) (17,27) (18,28) (20,23) (21,22) (25,29);
